####################################################################### 
# 
# This file contains crystal structure data downloaded from the 
# Cambridge Structural Database CSD hosted by the Cambridge 
# Crystallographic Data Centre CCDC.
# 
# Full information about CCDC data access policies and citation 
# guidelines are available at http://www.ccdc.cam.ac.uk/access/V1 
# 
# Audit and citation data items may have been added by the CCDC. 
# Please retain this information to preserve the provenance of 
# this file and to allow appropriate attribution of the data. 
# 
#######################################################################

data_1
_audit_block_doi                 10.5517/cczv2jd
_database_code_depnum_ccdc_archive 'CCDC 918794'
loop_
_citation_id
_citation_doi
_citation_year
1 10.1002/anie.201300821 2013
_audit_update_record             
;
2013-01-09 deposited with the CCDC.	2020-02-03 downloaded from the CCDC.
;
#TrackingRef 'all the compound.cif'


_audit_creation_method           SHELXL-97
_chemical_name_systematic        
;
?
;
_chemical_name_common            ?
_chemical_melting_point          ?
_chemical_formula_moiety         ?
_chemical_formula_sum            'C20 H18 N4 O14 Zn3'
_chemical_formula_weight         734.55

loop_
_atom_type_symbol
_atom_type_description
_atom_type_scat_dispersion_real
_atom_type_scat_dispersion_imag
_atom_type_scat_source
C C 0.0033 0.0016 'International Tables Vol C Tables 4.2.6.8 and 6.1.1.4'
H H 0.0000 0.0000 'International Tables Vol C Tables 4.2.6.8 and 6.1.1.4'
N N 0.0061 0.0033 'International Tables Vol C Tables 4.2.6.8 and 6.1.1.4'
O O 0.0106 0.0060 'International Tables Vol C Tables 4.2.6.8 and 6.1.1.4'
Zn Zn 0.2839 1.4301 'International Tables Vol C Tables 4.2.6.8 and 6.1.1.4'

_symmetry_cell_setting           monoclinic
_symmetry_space_group_name_H-M   C2/c

loop_
_symmetry_equiv_pos_as_xyz
'x, y, z'
'-x, y, -z+1/2'
'x+1/2, y+1/2, z'
'-x+1/2, y+1/2, -z+1/2'
'-x, -y, -z'
'x, -y, z-1/2'
'-x+1/2, -y+1/2, -z'
'x+1/2, -y+1/2, z-1/2'

_cell_length_a                   20.4364
_cell_length_b                   9.005017
_cell_length_c                   16.6723
_cell_angle_alpha                90.00
_cell_angle_beta                 110.2303
_cell_angle_gamma                90.00
_cell_volume                     2878.89
_cell_formula_units_Z            4
_cell_measurement_temperature    1502
_cell_measurement_reflns_used    ?
_cell_measurement_theta_min      ?
_cell_measurement_theta_max      ?

_exptl_crystal_description       ?
_exptl_crystal_colour            ?
_exptl_crystal_size_max          0.2
_exptl_crystal_size_mid          0.2
_exptl_crystal_size_min          0.1
_exptl_crystal_density_meas      ?
_exptl_crystal_density_diffrn    1.695
_exptl_crystal_density_method    'not measured'
_exptl_crystal_F_000             1472
_exptl_absorpt_coefficient_mu    2.550
_exptl_absorpt_correction_type   multi-scan
_exptl_absorpt_correction_T_min  0.607
_exptl_absorpt_correction_T_max  0.775
_exptl_absorpt_process_details   ?

_exptl_special_details           
;
?
;

_diffrn_ambient_temperature      1502
_diffrn_radiation_wavelength     0.71073
_diffrn_radiation_type           MoK\a
_diffrn_radiation_source         'fine-focus sealed tube'
_diffrn_radiation_monochromator  graphite
_diffrn_measurement_device_type  ?
_diffrn_measurement_method       ?
_diffrn_detector_area_resol_mean ?
_diffrn_standards_number         ?
_diffrn_standards_interval_count ?
_diffrn_standards_interval_time  ?
_diffrn_standards_decay_%        ?
_diffrn_reflns_number            5985
_diffrn_reflns_av_R_equivalents  0.0258
_diffrn_reflns_av_sigmaI/netI    0.0356
_diffrn_reflns_limit_h_min       -24
_diffrn_reflns_limit_h_max       23
_diffrn_reflns_limit_k_min       -10
_diffrn_reflns_limit_k_max       6
_diffrn_reflns_limit_l_min       -19
_diffrn_reflns_limit_l_max       18
_diffrn_reflns_theta_min         2.50
_diffrn_reflns_theta_max         25.00
_reflns_number_total             2493
_reflns_number_gt                1987
_reflns_threshold_expression     >2sigmaI

_computing_data_collection       ?
_computing_cell_refinement       ?
_computing_data_reduction        ?
_computing_structure_solution    'SHELXS-97 Sheldrick, 1990'
_computing_structure_refinement  'SHELXL-97 Sheldrick, 1997'
_computing_molecular_graphics    ?
_computing_publication_material  ?

_refine_special_details          
;
Refinement of F^2^ against ALL reflections. The weighted R-factor wR and
goodness of fit S are based on F^2^, conventional R-factors R are based
on F, with F set to zero for negative F^2^. The threshold expression of
F^2^ > 2sigmaF^2^ is used only for calculating R-factorsgt etc. and is
not relevant to the choice of reflections for refinement. R-factors based
on F^2^ are statistically about twice as large as those based on F, and R-
factors based on ALL data will be even larger.
;

_refine_ls_structure_factor_coef Fsqd
_refine_ls_matrix_type           full
_refine_ls_weighting_scheme      calc
_refine_ls_weighting_details     
'calc w=1/[\s^2^Fo^2^+0.1159P^2^+22.4318P] where P=Fo^2^+2Fc^2^/3'
_atom_sites_solution_primary     direct
_atom_sites_solution_secondary   difmap
_atom_sites_solution_hydrogens   geom
_refine_ls_hydrogen_treatment    mixed
_refine_ls_extinction_method     none
_refine_ls_extinction_coef       ?
_refine_ls_number_reflns         2493
_refine_ls_number_parameters     192
_refine_ls_number_restraints     31
_refine_ls_R_factor_all          0.0735
_refine_ls_R_factor_gt           0.0576
_refine_ls_wR_factor_ref         0.1787
_refine_ls_wR_factor_gt          0.1643
_refine_ls_goodness_of_fit_ref   1.035
_refine_ls_restrained_S_all      1.062
_refine_ls_shift/su_max          0.000
_refine_ls_shift/su_mean         0.000

loop_
_atom_site_label
_atom_site_type_symbol
_atom_site_fract_x
_atom_site_fract_y
_atom_site_fract_z
_atom_site_U_iso_or_equiv
_atom_site_adp_type
_atom_site_occupancy
_atom_site_symmetry_multiplicity
_atom_site_calc_flag
_atom_site_refinement_flags
_atom_site_disorder_assembly
_atom_site_disorder_group
Zn1 Zn 0.160814 0.305299 0.267514 0.02373 Uani 1 1 d . . .
Zn2 Zn 0.0000 0.2481513 0.2500 0.02663 Uani 1 2 d S . .
O1 O 0.05532 0.11116 0.33803 0.037312 Uani 1 1 d . . .
O4 O 0.06473 0.36547 0.21924 0.043615 Uani 1 1 d . . .
O2 O 0.15742 0.22756 0.38123 0.030811 Uani 1 1 d . . .
N1 N 0.26513 0.04147 0.69613 0.033014 Uani 1 1 d . . .
N2 N 0.19103 -0.12967 0.71653 0.034914 Uani 1 1 d . . .
C8 C 0.19553 0.09398 0.54164 0.026814 Uani 1 1 d . . .
H8 H 0.2280 0.1609 0.5321 0.032 Uiso 1 1 calc R . .
C10 C 0.11473 0.13867 0.39324 0.024913 Uani 1 1 d . . .
C7 C 0.13223 0.06147 0.47734 0.024014 Uani 1 1 d . . .
C5 C 0.10044 -0.11428 0.56754 0.031315 Uani 1 1 d . . .
H5 H 0.0690 -0.1849 0.5764 0.038 Uiso 1 1 calc R . .
C9 C 0.20883 0.02497 0.61934 0.023413 Uani 1 1 d . . .
C3 C 0.25054 -0.05219 0.75024 0.039018 Uani 1 1 d . . .
C4 C 0.16303 -0.07887 0.63194 0.025314 Uani 1 1 d . . .
C6 C 0.08613 -0.04198 0.49034 0.031716 Uani 1 1 d . . .
H6 H 0.0438 -0.0630 0.4450 0.038 Uiso 1 1 calc R . .
O3 O 0.33695 0.04869 0.87124 0.0943 Uani 1 1 d D . .
H3A H 0.3121 0.1077 0.8872 0.141 Uiso 1 1 calc R . .
C2 C 0.29896 -0.081611 0.83916 0.0703 Uani 1 1 d DU . .
H2 H 0.2752 -0.1239 0.8773 0.084 Uiso 1 1 calc R . .
C1 C 0.36778 -0.178618 0.838810 0.1045 Uani 1 1 d U . .
H1A H 0.3985 -0.1962 0.8978 0.157 Uiso 1 1 calc R . .
H1B H 0.3930 -0.1230 0.8082 0.157 Uiso 1 1 calc R . .
H1C H 0.3523 -0.2740 0.8102 0.157 Uiso 1 1 calc R . .
O3W O 0.228813 0.1633 0.899615 0.1638 Uani 0.60 1 d PU . .
H4 H 0.0657 0.39715 0.1858 0.095 Uiso 1 1 d . . .
O2W O 0.085011 0.6202 0.346213 0.2298 Uani 1 1 d U . .
O1W O -0.03929 0.4672 0.042610 0.1836 Uani 1 1 d U . .
O4W O 0.0000 0.8095 0.2500 0.272 Uiso 0.80 2 d SP . .

loop_
_atom_site_aniso_label
_atom_site_aniso_U_11
_atom_site_aniso_U_22
_atom_site_aniso_U_33
_atom_site_aniso_U_23
_atom_site_aniso_U_13
_atom_site_aniso_U_12
Zn1 0.02024 0.03315 0.01504 -0.00273 0.00253 -0.00163
Zn2 0.01876 0.03577 0.01985 0.000 -0.00064 0.000
O1 0.0293 0.0443 0.0252 0.0092 -0.0092 -0.0112
O4 0.0253 0.0564 0.0443 0.0283 0.0042 0.0022
O2 0.0252 0.0453 0.0162 0.0032 -0.000718 -0.0092
N1 0.0333 0.0434 0.0153 0.0032 -0.0032 -0.0113
N2 0.0343 0.0484 0.0163 0.0073 -0.0012 -0.0133
C8 0.0213 0.0384 0.0183 -0.0013 0.0023 -0.0033
C10 0.0263 0.0263 0.0183 0.0003 0.0023 0.0023
C7 0.0203 0.0314 0.0153 -0.0013 -0.0012 0.0003
C5 0.0304 0.0364 0.0263 0.0033 0.0063 -0.0043
C9 0.0223 0.0303 0.0143 0.0002 0.0012 -0.0033
C3 0.0434 0.0505 0.0173 0.0033 0.0013 -0.0194
C4 0.0273 0.0293 0.0173 0.0033 0.0042 0.0023
C6 0.0243 0.0454 0.0163 0.0033 -0.0053 -0.0013
O3 0.1016 0.0966 0.0494 0.0084 -0.0204 -0.0455
C2 0.0666 0.0826 0.0414 0.0154 -0.0064 -0.0325
C1 0.0857 0.1379 0.0937 0.0277 0.0346 0.0007
O3W 0.15711 0.18012 0.15511 0.0469 0.0599 -0.0479
O2W 0.26012 0.20911 0.23111 -0.0299 0.1029 0.0089
O1W 0.1949 0.19210 0.1548 -0.0048 0.0487 -0.0298

_geom_special_details            
;
All esds except the esd in the dihedral angle between two l.s. planes
are estimated using the full covariance matrix. The cell esds are taken
into account individually in the estimation of esds in distances, angles
and torsion angles; correlations between esds in cell parameters are only
used when they are defined by crystal symmetry. An approximate isotropic
treatment of cell esds is used for estimating esds involving l.s. planes.
;

loop_
_geom_bond_atom_site_label_1
_geom_bond_atom_site_label_2
_geom_bond_distance
_geom_bond_site_symmetry_2
_geom_bond_publ_flag
Zn1 O4 1.9265 . ?
Zn1 N1 1.9836 7_556 ?
Zn1 N2 1.9926 6 ?
Zn1 O2 2.0444 . ?
Zn1 H4 2.1413 . ?
Zn2 O4 1.8956 . ?
Zn2 O4 1.8956 2 ?
Zn2 O1 1.9515 2 ?
Zn2 O1 1.9515 . ?
Zn2 Zn1 3.238110 2 ?
O1 C10 1.2688 . ?
O4 H4 0.6312 . ?
O2 C10 1.2518 . ?
N1 C3 1.3409 . ?
N1 C9 1.4028 . ?
N1 Zn1 1.9836 7_556 ?
N2 C3 1.3459 . ?
N2 C4 1.4038 . ?
N2 Zn1 1.9926 6_556 ?
C8 C9 1.3769 . ?
C8 C7 1.3968 . ?
C8 H8 0.9500 . ?
C10 C7 1.4939 . ?
C7 C6 1.39410 . ?
C5 C6 1.3829 . ?
C5 C4 1.3939 . ?
C5 H5 0.9500 . ?
C9 C4 1.3899 . ?
C3 C2 1.49311 . ?
C6 H6 0.9500 . ?
O3 C2 1.4078 . ?
O3 H3A 0.8400 . ?
C2 C1 1.65718 . ?
C2 H2 1.0000 . ?
C1 H1A 0.9800 . ?
C1 H1B 0.9800 . ?
C1 H1C 0.9800 . ?

loop_
_geom_angle_atom_site_label_1
_geom_angle_atom_site_label_2
_geom_angle_atom_site_label_3
_geom_angle
_geom_angle_site_symmetry_1
_geom_angle_site_symmetry_3
_geom_angle_publ_flag
O4 Zn1 N1 119.63 . 7_556 ?
O4 Zn1 N2 117.83 . 6 ?
N1 Zn1 N2 111.53 7_556 6 ?
O4 Zn1 O2 97.32 . . ?
N1 Zn1 O2 102.92 7_556 . ?
N2 Zn1 O2 103.82 6 . ?
O4 Zn1 H4 173 . . ?
N1 Zn1 H4 1114 7_556 . ?
N2 Zn1 H4 1134 6 . ?
O2 Zn1 H4 1143 . . ?
O4 Zn2 O4 112.34 . 2 ?
O4 Zn2 O1 115.23 . 2 ?
O4 Zn2 O1 106.22 2 2 ?
O4 Zn2 O1 106.22 . . ?
O4 Zn2 O1 115.23 2 . ?
O1 Zn2 O1 101.53 2 . ?
O4 Zn2 Zn1 131.9018 . 2 ?
O4 Zn2 Zn1 32.3417 2 2 ?
O1 Zn2 Zn1 74.1415 2 2 ?
O1 Zn2 Zn1 118.3215 . 2 ?
C10 O1 Zn2 125.65 . . ?
Zn2 O4 Zn1 115.93 . . ?
Zn2 O4 H4 13510 . . ?
Zn1 O4 H4 10110 . . ?
C10 O2 Zn1 128.14 . . ?
C3 N1 C9 104.25 . . ?
C3 N1 Zn1 123.84 . 7_556 ?
C9 N1 Zn1 130.65 . 7_556 ?
C3 N2 C4 104.25 . . ?
C3 N2 Zn1 127.04 . 6_556 ?
C4 N2 Zn1 127.65 . 6_556 ?
C9 C8 C7 117.26 . . ?
C9 C8 H8 121.4 . . ?
C7 C8 H8 121.4 . . ?
O2 C10 O1 123.76 . . ?
O2 C10 C7 119.65 . . ?
O1 C10 C7 116.86 . . ?
C6 C7 C8 121.26 . . ?
C6 C7 C10 120.05 . . ?
C8 C7 C10 118.86 . . ?
C6 C5 C4 116.96 . . ?
C6 C5 H5 121.6 . . ?
C4 C5 H5 121.6 . . ?
C8 C9 C4 121.56 . . ?
C8 C9 N1 130.26 . . ?
C4 C9 N1 108.35 . . ?
N1 C3 N2 115.16 . . ?
N1 C3 C2 123.77 . . ?
N2 C3 C2 121.06 . . ?
C9 C4 C5 121.76 . . ?
C9 C4 N2 108.15 . . ?
C5 C4 N2 130.26 . . ?
C5 C6 C7 121.56 . . ?
C5 C6 H6 119.2 . . ?
C7 C6 H6 119.2 . . ?
C2 O3 H3A 109.5 . . ?
O3 C2 C3 108.67 . . ?
O3 C2 C1 94.89 . . ?
C3 C2 C1 111.29 . . ?
O3 C2 H2 113.6 . . ?
C3 C2 H2 113.6 . . ?
C1 C2 H2 113.6 . . ?
C2 C1 H1A 109.5 . . ?
C2 C1 H1B 109.5 . . ?
H1A C1 H1B 109.5 . . ?
C2 C1 H1C 109.5 . . ?
H1A C1 H1C 109.5 . . ?
H1B C1 H1C 109.5 . . ?

_diffrn_measured_fraction_theta_max 0.983
_diffrn_reflns_theta_full        25.00
_diffrn_measured_fraction_theta_full 0.983
_refine_diff_density_max         1.340
_refine_diff_density_min         -0.671
_refine_diff_density_rms         0.163
