####################################################################### 
# 
# This file contains crystal structure data downloaded from the 
# Cambridge Structural Database CSD hosted by the Cambridge 
# Crystallographic Data Centre CCDC.
# 
# Full information about CCDC data access policies and citation 
# guidelines are available at http://www.ccdc.cam.ac.uk/access/V1 
# 
# Audit and citation data items may have been added by the CCDC. 
# Please retain this information to preserve the provenance of 
# this file and to allow appropriate attribution of the data. 
# 
#######################################################################

data_x1268fin
_audit_block_doi                 10.5517/cczcbsf
_database_code_depnum_ccdc_archive 'CCDC 904635'
loop_
_citation_id
_citation_doi
_citation_year
1 10.1039/c3ce40179k 2013
_audit_update_record             
;
2012-10-04 deposited with the CCDC.	2020-01-17 downloaded from the CCDC.
;
#TrackingRef '904635_archive_x1268fin.cif'


_audit_creation_date             2012-08-15T14:54:45-00:00
_audit_creation_method           'WinGX routine CIF_UPDATE'
_audit_conform_dict_name         cif_core.dic
_audit_conform_dict_version      2.4
_audit_conform_dict_location     ftp://ftp.iucr.org/pub/cif_core.dic

#----------------------------------------------------------------------------#
# CHEMICAL INFORMATION #
#----------------------------------------------------------------------------#

_chemical_name_systematic        
;
?
;
_chemical_formula_sum            'C61.50 H69.50 N4.50 O24.50 Zn4'
_chemical_formula_weight         1525.2

#----------------------------------------------------------------------------#
# UNIT CELL INFORMATION #
#----------------------------------------------------------------------------#

_symmetry_cell_setting           Rhombohedral
_symmetry_space_group_name_H-M   R-3
loop_
_symmetry_equiv_pos_as_xyz
'x, y, z'
'-y, x-y, z'
'-x+y, -x, z'
'x+2/3, y+1/3, z+1/3'
'-y+2/3, x-y+1/3, z+1/3'
'-x+y+2/3, -x+1/3, z+1/3'
'x+1/3, y+2/3, z+2/3'
'-y+1/3, x-y+2/3, z+2/3'
'-x+y+1/3, -x+2/3, z+2/3'
'-x, -y, -z'
'y, -x+y, -z'
'x-y, x, -z'
'-x+2/3, -y+1/3, -z+1/3'
'y+2/3, -x+y+1/3, -z+1/3'
'x-y+2/3, x+1/3, -z+1/3'
'-x+1/3, -y+2/3, -z+2/3'
'y+1/3, -x+y+2/3, -z+2/3'
'x-y+1/3, x+2/3, -z+2/3'

_cell_length_a                   23.68994
_cell_length_b                   23.68994
_cell_length_c                   30.80587
_cell_angle_alpha                90
_cell_angle_beta                 90
_cell_angle_gamma                120
_cell_volume                     14972.35
_cell_formula_units_Z            6
_cell_measurement_temperature    1302
_cell_measurement_reflns_used    21046
_cell_measurement_theta_min      2.9351
_cell_measurement_theta_max      28.855

#----------------------------------------------------------------------------#
# CRYSTAL INFORMATION #
#----------------------------------------------------------------------------#

_exptl_crystal_description       prism
_exptl_crystal_colour            colorless
_exptl_crystal_size_max          0.4
_exptl_crystal_size_mid          0.4
_exptl_crystal_size_min          0.3
_exptl_crystal_density_diffrn    1.015
_exptl_crystal_density_method    'not measured'
_exptl_crystal_F_000             4716
_exptl_special_details           
;
?
;

#----------------------------------------------------------------------------#
# ABSORPTION CORRECTION #
#----------------------------------------------------------------------------#

_exptl_absorpt_coefficient_mu    1.005
_exptl_absorpt_correction_type   multi-scan
_exptl_absorpt_process_details   
;
CrysAlisPro, Oxford Diffraction Ltd.,
Version 1.171.34.44 release 25-10-2010 CrysAlis171 .NET
compiled Oct 25 2010,18:11:34
Empirical absorption correction using spherical harmonics,
implemented in SCALE3 ABSPACK scaling algorithm.
;
_exptl_absorpt_correction_T_min  0.95757
_exptl_absorpt_correction_T_max  1

#----------------------------------------------------------------------------#
# DATA COLLECTION #
#----------------------------------------------------------------------------#

_diffrn_ambient_temperature      1302
_diffrn_radiation_wavelength     0.71073
_diffrn_radiation_type           MoK\a
_diffrn_radiation_monochromator  graphite
_diffrn_detector_area_resol_mean 16.356
_diffrn_orient_matrix_ub_11      -0.0232381
_diffrn_orient_matrix_ub_12      -0.0170265
_diffrn_orient_matrix_ub_13      0.0165374
_diffrn_orient_matrix_ub_21      -0.0029711
_diffrn_orient_matrix_ub_22      -0.0297594
_diffrn_orient_matrix_ub_23      -0.007325
_diffrn_orient_matrix_ub_31      0.0254424
_diffrn_orient_matrix_ub_32      0.0044402
_diffrn_orient_matrix_ub_33      0.014222
_diffrn_measurement_device_type  'Xcalibur, Sapphire3, Gemini'
_diffrn_measurement_method       '\w scans'
_diffrn_reflns_av_R_equivalents  0.0437
_diffrn_reflns_av_unetI/netI     0.0233
_diffrn_reflns_number            62800
_diffrn_reflns_limit_h_min       -29
_diffrn_reflns_limit_h_max       29
_diffrn_reflns_limit_k_min       -29
_diffrn_reflns_limit_k_max       29
_diffrn_reflns_limit_l_min       -38
_diffrn_reflns_limit_l_max       38
_diffrn_reflns_theta_min         2.94
_diffrn_reflns_theta_max         26.37
_diffrn_reflns_theta_full        26.37
_diffrn_measured_fraction_theta_full 0.998
_diffrn_measured_fraction_theta_max 0.998
_reflns_number_total             6809
_reflns_number_gt                5693
_reflns_threshold_expression     >2\sI

#----------------------------------------------------------------------------#
# COMPUTER PROGRAMS USED #
#----------------------------------------------------------------------------#

_computing_data_collection       
;
CrysAlisPro, Oxford Diffraction Ltd.,
Version 1.171.34.44 release 25-10-2010 CrysAlis171 .NET
compiled Oct 25 2010,18:11:34
;
_computing_cell_refinement       
;
CrysAlisPro, Oxford Diffraction Ltd.,
Version 1.171.34.44 release 25-10-2010 CrysAlis171 .NET
compiled Oct 25 2010,18:11:34
;
_computing_data_reduction        
;
CrysAlisPro, Oxford Diffraction Ltd.,
Version 1.171.34.44 release 25-10-2010 CrysAlis171 .NET
compiled Oct 25 2010,18:11:34
;
_computing_structure_solution    
;
SHELXS-97
Program for Crystal Structure Analysis Release 97-2
G. M. Sheldrick, Instit\"ut f\"ur Anorganische Chemie der Universit\"at,
Tammanstrasse 4, D-3400 G\"ottingen, Germany, 1998.
;
_computing_structure_refinement  'SHELXL-97 Sheldrick, 2008'
_computing_molecular_graphics    
;
ORTEP3 for Windows
L. J. Farrugia, J. Appl. Crystallogr. 1997, 30, 565.
;
_computing_publication_material  
;
WINGX
L.J. Farrugia,
J. Appl. Cryst., 1999, 32, 837-838.
;

#----------------------------------------------------------------------------#
# STRUCTURE SOLUTION
#----------------------------------------------------------------------------#

_atom_sites_solution_primary     direct
_atom_sites_solution_secondary   difmap
_atom_sites_solution_hydrogens   geom

#----------------------------------------------------------------------------#
# REFINEMENT INFORMATION #
#----------------------------------------------------------------------------#

_refine_special_details          
;
Refinement of F^2^ against ALL reflections. The weighted R-factor wR and
goodness of fit S are based on F^2^, conventional R-factors R are based
on F, with F set to zero for negative F^2^. The threshold expression of
F^2^ > 2\sF^2^ is used only for calculating R-factorsgt etc. and is
not relevant to the choice of reflections for refinement. R-factors based
on F^2^ are statistically about twice as large as those based on F, and R-
factors based on ALL data will be even larger.

All ligands were found to be disordered.
Zn1 is close 221.4 pm to the highest electron density. This may be
affected by a disordered water molecule.
;
_refine_ls_structure_factor_coef Fsqd
_refine_ls_matrix_type           full
_refine_ls_weighting_scheme      calc
_refine_ls_weighting_details     
'calc w=1/[\s^2^Fo^2^+0.0861P^2^+19.3668P] where P=Fo^2^+2Fc^2^/3'
_refine_ls_hydrogen_treatment    constr
_refine_ls_extinction_method     none
_refine_ls_number_reflns         6809
_refine_ls_number_parameters     339
_refine_ls_number_restraints     200
_refine_ls_R_factor_all          0.0561
_refine_ls_R_factor_gt           0.0465
_refine_ls_wR_factor_ref         0.14
_refine_ls_wR_factor_gt          0.135
_refine_ls_goodness_of_fit_ref   1.077
_refine_ls_restrained_S_all      1.074
_refine_ls_shift/su_max          0.001
_refine_ls_shift/su_mean         0
_refine_diff_density_max         1.511
_refine_diff_density_min         -0.64
_refine_diff_density_rms         0.069

#----------------------------------------------------------------------------#
# ATOMIC TYPES, COORDINATES AND THERMAL PARAMETERS #
#----------------------------------------------------------------------------#

loop_
_atom_type_symbol
_atom_type_description
_atom_type_scat_dispersion_real
_atom_type_scat_dispersion_imag
_atom_type_scat_source
Zn Zn 0.2839 1.4301 'International Tables Vol C Tables 4.2.6.8 and 6.1.1.4'
O O 0.0106 0.006 'International Tables Vol C Tables 4.2.6.8 and 6.1.1.4'
N N 0.0061 0.0033 'International Tables Vol C Tables 4.2.6.8 and 6.1.1.4'
C C 0.0033 0.0016 'International Tables Vol C Tables 4.2.6.8 and 6.1.1.4'
H H 0 0 'International Tables Vol C Tables 4.2.6.8 and 6.1.1.4'

loop_
_atom_site_label
_atom_site_type_symbol
_atom_site_fract_x
_atom_site_fract_y
_atom_site_fract_z
_atom_site_U_iso_or_equiv
_atom_site_adp_type
_atom_site_occupancy
_atom_site_symmetry_multiplicity
_atom_site_calc_flag
_atom_site_refinement_flags
_atom_site_disorder_assembly
_atom_site_disorder_group
Zn1 Zn 0 0 0.24653116 0.0392516 Uani 1 3 d S . .
Zn2 Zn -0.04349513 -0.08701513 0.1592418 0.0272511 Uani 1 1 d D . .
O1 O -0.02555 -0.09264 0.25583 0.1205 Uani 0.4936 1 d PD A 1
O2 O -0.074418 -0.15807 0.20084 0.0443 Uani 0.4936 1 d PD A 1
O3 O -0.200011 -0.38337 0.26908 0.0684 Uani 0.4936 1 d PD A 1
O4 O -0.32594 -0.54805 0.45723 0.035512 Uani 0.4936 1 d PD . 1
O5 O -0.22858 -0.54136 0.46204 0.050516 Uani 0.4936 1 d PD A 1
O6 O -0.26814 -0.34793 0.36942 0.1113 Uani 0.4936 1 d PD A 1
C1 C -0.06165 -0.14725 0.23994 0.0573 Uani 0.4936 1 d PD A 1
C2 C -0.09326 -0.20495 0.26984 0.0733 Uani 0.4936 1 d PD A 1
C3 C -0.13228 -0.26726 0.25374 0.05619 Uani 0.4936 1 d PD A 1
H3 H -0.1395 -0.2739 0.2233 0.067 Uiso 0.4936 1 calc PR A 1
C4 C -0.16077 -0.31966 0.28174 0.05408 Uani 0.4936 1 d PD A 1
C5 C -0.14976 -0.30985 0.32614 0.078917 Uani 0.4936 1 d PD A 1
C6 C -0.11107 -0.24786 0.34113 0.1367 Uani 0.4936 1 d PD A 1
H6 H -0.1039 -0.2405 0.3715 0.164 Uiso 0.4936 1 calc PR A 1
C7 C -0.08218 -0.19566 0.31314 0.1207 Uani 0.4936 1 d PD A 1
H7 H -0.0544 -0.153 0.3241 0.143 Uiso 0.4936 1 calc PR A 1
C8 C -0.1985 -0.3952 0.222911 0.1113 Uani 0.4936 1 d PD A 1
H8A H -0.2235 -0.4421 0.2172 0.166 Uiso 0.4936 1 calc PR A 1
H8B H -0.1532 -0.378 0.2136 0.166 Uiso 0.4936 1 calc PR A 1
H8C H -0.2176 -0.3732 0.2067 0.166 Uiso 0.4936 1 calc PR A 1
C9 C -0.26676 -0.52465 0.44714 0.044613 Uani 0.4936 1 d PD A 1
C10 C -0.23546 -0.46875 0.41614 0.06029 Uani 0.4936 1 d PD A 1
C11 C -0.26536 -0.43326 0.40744 0.0724 Uani 0.4936 1 d PD A 1
H11 H -0.3051 -0.4439 0.4214 0.087 Uiso 0.4936 1 calc PR A 1
C12 C -0.23786 -0.38165 0.37813 0.0815 Uani 0.4936 1 d PD A 1
C13 C -0.18015 -0.36605 0.35744 0.079814 Uani 0.4936 1 d PD A 1
C14 C -0.14926 -0.40035 0.36764 0.0885 Uani 0.4936 1 d PD A 1
H14 H -0.1084 -0.3885 0.3546 0.105 Uiso 0.4936 1 calc PR A 1
C15 C -0.17636 -0.45146 0.39644 0.0815 Uani 0.4936 1 d PD A 1
H15 H -0.1545 -0.4749 0.4029 0.097 Uiso 0.4936 1 calc PR A 1
C16 C -0.32737 -0.36297 0.39315 0.1366 Uani 0.4936 1 d PD A 1
H16A H -0.3442 -0.3352 0.3824 0.204 Uiso 0.4936 1 calc PR A 1
H16B H -0.3174 -0.3548 0.4241 0.204 Uiso 0.4936 1 calc PR A 1
H16C H -0.3601 -0.4088 0.3886 0.204 Uiso 0.4936 1 calc PR A 1
O1F O -0.06666 -0.09194 0.25603 0.1255 Uani 0.5076 1 d PD A 2
O2F O -0.083017 -0.15697 0.20204 0.0443 Uani 0.5076 1 d PD A 2
O3F O -0.183010 -0.38207 0.27008 0.0684 Uani 0.5076 1 d PD A 2
O4F O -0.22237 -0.54814 0.45723 0.035512 Uani 0.5076 1 d PD A 2
O5F O -0.31304 -0.54176 0.46194 0.050516 Uani 0.5076 1 d PD . 2
O6F O -0.07973 -0.34843 0.36942 0.1113 Uani 0.5076 1 d PD A 2
C1F C -0.08435 -0.14625 0.24144 0.0573 Uani 0.5076 1 d PD A 2
C2F C -0.11076 -0.20365 0.27154 0.0733 Uani 0.5076 1 d PD A 2
C3F C -0.13407 -0.26576 0.25514 0.05619 Uani 0.5076 1 d PD A 2
H3F H -0.1333 -0.272 0.2247 0.067 Uiso 0.5076 1 calc PR A 2
C4F C -0.15846 -0.31845 0.28284 0.05408 Uani 0.5076 1 d PD A 2
C5F C -0.15956 -0.30905 0.32733 0.078917 Uani 0.5076 1 d PD A 2
C6F C -0.13577 -0.24726 0.34294 0.1438 Uani 0.5076 1 d PD A 2
H6F H -0.1354 -0.2404 0.3733 0.172 Uiso 0.5076 1 calc PR A 2
C7F C -0.11208 -0.19466 0.31514 0.1258 Uani 0.5076 1 d PD A 2
H7F H -0.0966 -0.152 0.3264 0.15 Uiso 0.5076 1 calc PR A 2
C8F C -0.1965 -0.3942 0.224010 0.1113 Uani 0.5076 1 d PD A 2
H8F1 H -0.2077 -0.4396 0.2176 0.166 Uiso 0.5076 1 calc PR A 2
H8F2 H -0.1566 -0.3648 0.2075 0.166 Uiso 0.5076 1 calc PR A 2
H8F3 H -0.2317 -0.3874 0.2156 0.166 Uiso 0.5076 1 calc PR A 2
C9F C -0.25796 -0.52455 0.44714 0.044613 Uani 0.5076 1 d PD A 2
C10F C -0.23326 -0.46855 0.41634 0.06029 Uani 0.5076 1 d PD A 2
C11F C -0.16816 -0.43345 0.40754 0.0694 Uani 0.5076 1 d PD A 2
H11F H -0.1391 -0.4445 0.4213 0.083 Uiso 0.5076 1 calc PR A 2
C12F C -0.14386 -0.38174 0.37843 0.0774 Uani 0.5076 1 d PD A 2
C13F C -0.18555 -0.36545 0.35813 0.079814 Uani 0.5076 1 d PD A 2
C14F C -0.25076 -0.39895 0.36834 0.0945 Uani 0.5076 1 d PD A 2
H14F H -0.2793 -0.3864 0.3555 0.113 Uiso 0.5076 1 calc PR A 2
C15F C -0.27496 -0.45046 0.39714 0.0865 Uani 0.5076 1 d PD A 2
H15F H -0.3201 -0.4735 0.4039 0.103 Uiso 0.5076 1 calc PR A 2
C16F C -0.03555 -0.36377 0.39305 0.1446 Uani 0.5076 1 d PD A 2
H16D H 0.009 -0.3363 0.3823 0.217 Uiso 0.5076 1 calc PR A 2
H16E H -0.0489 -0.4097 0.3886 0.217 Uiso 0.5076 1 calc PR A 2
H16F H -0.0371 -0.3555 0.4241 0.217 Uiso 0.5076 1 calc PR A 2
O7 O 0 0 0.181908 0.02365 Uani 1 3 d S . .
O8 O 0 0 0.31712 0.1503 Uani 1 3 d S A .
H8X H 0.0231 -0.022 0.3277 0.224 Uiso 0.22 1 calc PR . .
H8Y H -0.045 -0.0231 0.3277 0.224 Uiso 0.22 1 calc PR . .
H8Z H 0.022 0.045 0.3277 0.224 Uiso 0.22 1 calc PR . .

loop_
_atom_site_aniso_label
_atom_site_aniso_U_11
_atom_site_aniso_U_22
_atom_site_aniso_U_33
_atom_site_aniso_U_23
_atom_site_aniso_U_13
_atom_site_aniso_U_12
Zn1 0.04562 0.04562 0.02653 0 0 0.0228211
Zn2 0.0309217 0.0266317 0.0228216 0.0009410 0.0004210 0.0133412
O1 0.1699 0.0414 0.0715 0.0213 -0.0736 -0.0085
O2 0.0567 0.037911 0.033411 0.01289 0.008615 0.020416
O3 0.07410 0.038214 0.0772 0.011413 0.0035 0.0163
O4 0.0363 0.0322 0.0382 0.013817 0.006316 0.016617
O5 0.0463 0.0543 0.0543 0.0223 0.0122 0.0272
O6 0.1467 0.0925 0.1196 0.0634 0.0265 0.0795
C1 0.0777 0.036418 0.0452 0.013715 0.0134 0.0193
C2 0.1227 0.038819 0.034419 0.013215 0.0113 0.0223
C3 0.0772 0.039417 0.041217 0.012313 0.007816 0.021616
C4 0.0662 0.034116 0.052819 0.014013 0.007215 0.018515
C5 0.1134 0.0452 0.0562 0.023217 0.0133 0.0222
C6 0.272 0.0558 0.0326 0.0205 -0.0118 0.03910
C7 0.18717 0.0446 0.0628 0.0075 0.0028 0.0087
C8 0.1588 0.0513 0.0884 -0.0122 -0.0054 0.0263
C9 0.0463 0.044016 0.043016 0.017513 0.008417 0.021918
C10 0.0692 0.049219 0.0572 0.026515 0.013817 0.024817
C11 0.09910 0.0597 0.0656 0.0235 0.0336 0.0447
C12 0.12413 0.0527 0.0746 0.0225 0.0267 0.0488
C13 0.1044 0.0562 0.0642 0.032019 0.0162 0.0292
C14 0.10310 0.0507 0.11311 0.0477 0.0578 0.0407
C15 0.0718 0.0618 0.10911 0.0467 0.0408 0.0317
C16 0.13011 0.13211 0.18314 0.08610 0.04010 0.0929
O1F 0.24212 0.0444 0.0725 0.0233 0.0977 0.0586
O2F 0.0567 0.037911 0.033411 0.01289 0.008615 0.020416
O3F 0.07410 0.038214 0.0772 0.011413 0.0035 0.0163
O4F 0.0363 0.0322 0.0382 0.013817 0.006316 0.016617
O5F 0.0463 0.0543 0.0543 0.0223 0.0122 0.0272
O6F 0.0895 0.0935 0.1155 0.0624 0.0404 0.0194
C1F 0.0777 0.036418 0.0452 0.013715 0.0134 0.0193
C2F 0.1227 0.038819 0.034419 0.013215 0.0113 0.0223
C3F 0.0772 0.039417 0.041217 0.012313 0.007816 0.021616
C4F 0.0662 0.034116 0.052819 0.014013 0.007215 0.018515
C5F 0.1134 0.0452 0.0562 0.023217 0.0133 0.0222
C6F 0.25019 0.0457 0.0558 0.0146 0.05110 0.0149
C7F 0.242 0.0476 0.0416 0.0104 0.0268 0.0419
C8F 0.1588 0.0513 0.0884 -0.0122 -0.0054 0.0263
C9F 0.0463 0.044016 0.043016 0.017513 0.008417 0.021918
C10F 0.0692 0.049219 0.0572 0.026515 0.013817 0.024817
C11F 0.0666 0.0496 0.0686 0.0225 -0.0125 0.0105
C12F 0.0757 0.0466 0.0676 0.0235 0.0005 -0.0025
C13F 0.1044 0.0562 0.0642 0.032019 0.0162 0.0292
C14F 0.0817 0.0527 0.11610 0.0547 -0.0137 0.0095
C15F 0.0747 0.0627 0.11811 0.0558 0.0117 0.0315
C16F 0.0757 0.14211 0.20215 0.09811 0.0458 0.0447
O7 0.02588 0.02588 0.019312 0 0 0.01294
O8 0.1955 0.1955 0.0594 0 0 0.0972


#----------------------------------------------------------------------------#
# MOLECULAR GEOMETRY #
#----------------------------------------------------------------------------#

_geom_special_details            
;
All s.u.'s except the s.u. in the dihedral angle between two l.s. planes
are estimated using the full covariance matrix. The cell s.u.'s are taken
into account individually in the estimation of s.u.'s in distances, angles
and torsion angles; correlations between s.u.'s in cell parameters are only
used when they are defined by crystal symmetry. An approximate isotropic
treatment of cell s.u.'s is used for estimating s.u.'s involving l.s. planes.
;
loop_
_geom_bond_atom_site_label_1
_geom_bond_atom_site_label_2
_geom_bond_distance
_geom_bond_site_symmetry_2
_geom_bond_publ_flag
Zn1 O1F 1.9698 2 ?
Zn1 O1F 1.9698 3 ?
Zn1 O1F 1.9698 . ?
Zn1 O1 1.9838 2 ?
Zn1 O1 1.9838 3 ?
Zn1 O1 1.9838 . ?
Zn1 O7 1.9913 . ?
Zn1 O8 2.1756 . ?
Zn2 O4F 1.9147 9_544 ?
Zn2 O4 1.9157 8_444 ?
Zn2 O7 1.91689 . ?
Zn2 O2 1.94210 . ?
Zn2 O2F 1.94910 . ?
Zn2 O5F 1.9988 8_444 ?
Zn2 O5 2.0018 9_544 ?
Zn2 Zn2 3.09215 2 ?
Zn2 Zn2 3.09215 3 ?
O1 C1 1.24110 . ?
O2 C1 1.23711 . ?
O3 C4 1.37610 . ?
O3 C8 1.45017 . ?
O4 C9 1.2639 . ?
O4 Zn2 1.9157 6_445 ?
O5 C9 1.24410 . ?
O5 Zn2 2.0018 5_445 ?
O6 C12 1.34013 . ?
O6 C16 1.46012 . ?
C1 C2 1.5019 . ?
C2 C7 1.3569 . ?
C2 C3 1.3839 . ?
C3 C4 1.3798 . ?
C4 C5 1.3928 . ?
C5 C6 1.3669 . ?
C5 C13 1.5029 . ?
C6 C7 1.3779 . ?
C9 C10 1.4939 . ?
C10 C11 1.36911 . ?
C10 C15 1.38611 . ?
C11 C12 1.39110 . ?
C12 C13 1.38011 . ?
C13 C14 1.37711 . ?
C14 C15 1.37410 . ?
O1F C1F 1.2239 . ?
O2F C1F 1.24311 . ?
O3F C4F 1.37510 . ?
O3F C8F 1.44817 . ?
O4F C9F 1.2629 . ?
O4F Zn2 1.9147 5_445 ?
O5F C9F 1.2439 . ?
O5F Zn2 1.9988 6_445 ?
O6F C12F 1.34613 . ?
O6F C16F 1.46212 . ?
C1F C2F 1.5019 . ?
C2F C7F 1.3629 . ?
C2F C3F 1.3828 . ?
C3F C4F 1.3788 . ?
C4F C5F 1.3908 . ?
C5F C6F 1.3679 . ?
C5F C13F 1.4989 . ?
C6F C7F 1.3809 . ?
C9F C10F 1.4929 . ?
C10F C11F 1.36411 . ?
C10F C15F 1.39111 . ?
C11F C12F 1.38810 . ?
C12F C13F 1.37711 . ?
C13F C14F 1.37611 . ?
C14F C15F 1.38210 . ?
O7 Zn2 1.91689 2 ?
O7 Zn2 1.91689 3 ?

loop_
_geom_angle_atom_site_label_1
_geom_angle_atom_site_label_2
_geom_angle_atom_site_label_3
_geom_angle
_geom_angle_site_symmetry_1
_geom_angle_site_symmetry_3
_geom_angle_publ_flag
O1F Zn1 O1F 117.8412 2 3 ?
O1F Zn1 O1F 117.8412 2 . ?
O1F Zn1 O1F 117.8412 3 . ?
O1F Zn1 O1 28.84 2 2 ?
O1F Zn1 O1 89.74 3 2 ?
O1F Zn1 O1 144.94 . 2 ?
O1F Zn1 O1 144.94 2 3 ?
O1F Zn1 O1 28.84 3 3 ?
O1F Zn1 O1 89.74 . 3 ?
O1 Zn1 O1 117.9712 2 3 ?
O1F Zn1 O1 89.74 2 . ?
O1F Zn1 O1 144.94 3 . ?
O1F Zn1 O1 28.84 . . ?
O1 Zn1 O1 117.9712 2 . ?
O1 Zn1 O1 117.9712 3 . ?
O1F Zn1 O7 98.52 2 . ?
O1F Zn1 O7 98.52 3 . ?
O1F Zn1 O7 98.52 . . ?
O1 Zn1 O7 98.32 2 . ?
O1 Zn1 O7 98.32 3 . ?
O1 Zn1 O7 98.32 . . ?
O1F Zn1 O8 81.52 2 . ?
O1F Zn1 O8 81.52 3 . ?
O1F Zn1 O8 81.52 . . ?
O1 Zn1 O8 81.72 2 . ?
O1 Zn1 O8 81.72 3 . ?
O1 Zn1 O8 81.72 . . ?
O7 Zn1 O8 180.000010 . . ?
O4F Zn2 O4 102.63 9_544 8_444 ?
O4F Zn2 O7 116.64 9_544 . ?
O4 Zn2 O7 116.74 8_444 . ?
O4F Zn2 O2 97.911 9_544 . ?
O4 Zn2 O2 103.011 8_444 . ?
O7 Zn2 O2 117.35 . . ?
O4F Zn2 O2F 103.810 9_544 . ?
O4 Zn2 O2F 98.711 8_444 . ?
O7 Zn2 O2F 116.04 . . ?
O2 Zn2 O2F 72 . . ?
O4F Zn2 O5F 110.93 9_544 8_444 ?
O4 Zn2 O5F 8.53 8_444 8_444 ?
O7 Zn2 O5F 109.94 . 8_444 ?
O2 Zn2 O5F 103.012 . 8_444 ?
O2F Zn2 O5F 98.011 . 8_444 ?
O4F Zn2 O5 8.53 9_544 9_544 ?
O4 Zn2 O5 110.93 8_444 9_544 ?
O7 Zn2 O5 110.04 . 9_544 ?
O2 Zn2 O5 97.112 . 9_544 ?
O2F Zn2 O5 103.412 . 9_544 ?
O5F Zn2 O5 119.24 8_444 9_544 ?
O4F Zn2 Zn2 80.44 9_544 2 ?
O4 Zn2 Zn2 127.95 8_444 2 ?
O7 Zn2 Zn2 36.244 . 2 ?
O2 Zn2 Zn2 128.49 . 2 ?
O2F Zn2 Zn2 131.68 . 2 ?
O5F Zn2 Zn2 126.05 8_444 2 ?
O5 Zn2 Zn2 74.24 9_544 2 ?
O4F Zn2 Zn2 127.95 9_544 3 ?
O4 Zn2 Zn2 80.54 8_444 3 ?
O7 Zn2 Zn2 36.244 . 3 ?
O2 Zn2 Zn2 132.78 . 3 ?
O2F Zn2 Zn2 127.58 . 3 ?
O5F Zn2 Zn2 74.14 8_444 3 ?
O5 Zn2 Zn2 126.25 9_544 3 ?
Zn2 Zn2 Zn2 60 2 3 ?
C1 O1 Zn1 140.07 . . ?
C1 O2 Zn2 121.011 . . ?
C4 O3 C8 114.919 . . ?
C9 O4 Zn2 126.47 . 6_445 ?
C9 O5 Zn2 130.410 . 5_445 ?
C12 O6 C16 119.48 . . ?
O2 C1 O1 124.712 . . ?
O2 C1 C2 116.89 . . ?
O1 C1 C2 118.58 . . ?
C7 C2 C3 119.87 . . ?
C7 C2 C1 119.27 . . ?
C3 C2 C1 120.97 . . ?
C4 C3 C2 120.17 . . ?
O3 C4 C3 124.612 . . ?
O3 C4 C5 115.512 . . ?
C3 C4 C5 119.97 . . ?
C6 C5 C4 118.86 . . ?
C6 C5 C13 120.27 . . ?
C4 C5 C13 121.07 . . ?
C5 C6 C7 121.27 . . ?
C2 C7 C6 120.28 . . ?
O5 C9 O4 126.59 . . ?
O5 C9 C10 113.68 . . ?
O4 C9 C10 119.88 . . ?
C11 C10 C15 119.27 . . ?
C11 C10 C9 119.47 . . ?
C15 C10 C9 121.57 . . ?
C10 C11 C12 120.68 . . ?
O6 C12 C13 120.09 . . ?
O6 C12 C11 119.910 . . ?
C13 C12 C11 120.18 . . ?
C14 C13 C12 118.97 . . ?
C14 C13 C5 120.68 . . ?
C12 C13 C5 120.48 . . ?
C15 C14 C13 121.18 . . ?
C14 C15 C10 120.18 . . ?
C1F O1F Zn1 140.67 . . ?
C1F O2F Zn2 122.511 . . ?
C4F O3F C8F 115.819 . . ?
C9F O4F Zn2 126.77 . 5_445 ?
C9F O5F Zn2 130.89 . 6_445 ?
C12F O6F C16F 119.37 . . ?
O1F C1F O2F 122.911 . . ?
O1F C1F C2F 119.68 . . ?
O2F C1F C2F 117.58 . . ?
C7F C2F C3F 120.07 . . ?
C7F C2F C1F 120.07 . . ?
C3F C2F C1F 120.07 . . ?
C4F C3F C2F 120.17 . . ?
O3F C4F C3F 124.911 . . ?
O3F C4F C5F 115.311 . . ?
C3F C4F C5F 119.97 . . ?
C6F C5F C4F 119.27 . . ?
C6F C5F C13F 119.87 . . ?
C4F C5F C13F 120.97 . . ?
C5F C6F C7F 120.88 . . ?
C2F C7F C6F 120.18 . . ?
O5F C9F O4F 126.29 . . ?
O5F C9F C10F 113.97 . . ?
O4F C9F C10F 119.97 . . ?
C11F C10F C15F 119.37 . . ?
C11F C10F C9F 119.37 . . ?
C15F C10F C9F 121.37 . . ?
C10F C11F C12F 120.68 . . ?
O6F C12F C13F 119.98 . . ?
O6F C12F C11F 119.910 . . ?
C13F C12F C11F 120.28 . . ?
C14F C13F C12F 119.36 . . ?
C14F C13F C5F 120.08 . . ?
C12F C13F C5F 120.58 . . ?
C13F C14F C15F 120.58 . . ?
C14F C15F C10F 120.08 . . ?
Zn2 O7 Zn2 107.537 . 2 ?
Zn2 O7 Zn2 107.537 . 3 ?
Zn2 O7 Zn2 107.537 2 3 ?
Zn2 O7 Zn1 111.357 . . ?
Zn2 O7 Zn1 111.357 2 . ?
Zn2 O7 Zn1 111.357 3 . ?

# SQUEEZE RESULTS APPEND TO CIF
# Note: Data are Listed for all Voids in the P1 Unit Cell
# i.e. Centre of Gravity, Solvent Accessible Volume,
# Recovered number of Electrons in the Void and
# Details about the Squeezed Material
loop_
_platon_squeeze_void_nr
_platon_squeeze_void_average_x
_platon_squeeze_void_average_y
_platon_squeeze_void_average_z
_platon_squeeze_void_volume
_platon_squeeze_void_count_electrons
_platon_squeeze_void_content
1 0.000 0.000 0.000 202 41 ' 1 dmf '
2 -0.014 0.466 -0.008 7314 973 ' 24 dmf '
3 0.333 0.667 0.667 201 41 ' 1 dmf '
4 0.667 0.333 0.333 201 41 ' 1 dmf '
_platon_squeeze_details          
;
The crystals were grown from dmf undried. The SQUEEZE
analysis reveal approximately 27 molecules of dmf for the unit cell,
i.e. 4.5 molecules of dmf for the asymmetric unit.
However, small amounts of water may be expected as well, because
the solvent was taken undried. For this
structure determination dmf was only taken into account.
;
